253.0 420.0
252.9 419.81
252.8 419.63
252.7 419.44
252.6 419.25
252.5 419.07
252.4 418.88
252.3 418.69
252.2 418.5
252.1 418.32
252.0 418.13
251.9 417.94
251.8 417.76
251.7 417.57
251.6 417.38
251.5 417.2
251.4 417.01
251.3 416.82
251.2 416.63
251.1 416.45
251.0 416.26
250.9 416.07
250.8 415.89
250.7 415.7
250.6 415.51
250.5 415.33
250.4 415.14
250.3 414.95
250.2 414.77
250.1 414.58
250.0 414.39
249.9 414.2
249.8 414.02
249.7 413.83
249.6 413.64
249.5 413.46
249.4 413.27
249.3 413.08
249.2 412.9
249.1 412.71
249.0 412.52
248.9 412.33
248.8 412.15
248.7 411.96
248.6 411.77
248.5 411.59
248.4 411.4
248.3 411.21
248.2 411.03
248.1 410.84
248.0 410.65
247.9 410.47
247.8 410.28
247.7 410.09
247.6 409.9
247.5 409.72
247.4 409.53
247.3 409.34
247.2 409.16
247.1 408.97
247.0 408.78
246.9 408.6
246.8 408.41
246.7 408.22
246.6 408.03
246.5 407.85
246.4 407.66
246.3 407.47
246.2 407.29
246.1 407.1
246.0 406.91
245.9 406.73
245.8 406.54
245.7 406.35
245.6 406.17
245.5 405.98
245.4 405.79
245.3 405.6
245.2 405.42
245.1 405.23
245.0 405.04
244.9 404.86
244.8 404.67
244.7 404.48
244.6 404.3
244.5 404.11
244.4 403.92
244.3 403.73
244.2 403.55
244.1 403.36
244.0 403.17
243.9 402.99
243.8 402.8
243.7 402.61
243.6 402.43
243.5 402.24
243.4 402.05
243.3 401.87
243.2 401.68
243.1 401.49
243.0 401.3
242.9 401.12
242.8 400.93
242.7 400.74
242.6 400.56
242.5 400.37
242.4 400.18
242.3 400.0
242.2 399.81
242.1 399.62
242.0 399.43
241.9 399.25
241.8 399.06
241.7 398.87
241.6 398.69
241.5 398.5
241.4 398.31
241.3 398.13
241.2 397.94
241.1 397.75
241.0 397.57
240.9 397.38
240.8 397.19
240.7 397.0
240.6 396.82
240.5 396.63
240.4 396.44
240.3 396.26
240.2 396.07
240.1 395.88
240.0 395.7
239.9 395.51
239.8 395.32
239.7 395.13
239.6 394.95
239.5 394.76
239.4 394.57
239.3 394.39
239.2 394.2
239.1 394.01
239.0 393.83
238.9 393.64
238.8 393.45
238.7 393.27
238.6 393.08
238.5 392.89
238.4 392.7
238.3 392.52
238.2 392.33
238.1 392.14
238.0 391.96
237.9 391.77
237.8 391.58
237.7 391.4
237.6 391.21
237.5 391.02
237.4 390.83
237.3 390.65
237.2 390.46
237.1 390.27
237.0 390.09
236.9 389.9
236.8 389.71
236.7 389.53
236.6 389.34
236.5 389.15
236.4 388.97
236.3 388.78
236.2 388.59
236.1 388.4
236.0 388.22
235.9 388.03
235.8 387.84
235.7 387.66
235.6 387.47
235.5 387.28
235.4 387.1
235.3 386.91
235.2 386.72
235.1 386.53
235.0 386.35
234.9 386.16
234.8 385.97
234.7 385.79
234.6 385.6
234.5 385.41
234.4 385.23
234.3 385.04
234.2 384.85
234.1 384.67
234.0 384.48
233.9 384.29
233.8 384.1
233.7 383.92
233.6 383.73
233.5 383.54
233.4 383.36
233.3 383.17
233.2 382.98
233.1 382.8
233.0 382.61
232.9 382.42
232.8 382.23
232.7 382.05
232.6 381.86
232.5 381.67
232.4 381.49
232.3 381.3
232.2 381.11
232.1 380.93
232.0 380.74
231.9 380.55
231.8 380.37
231.7 380.18
231.6 379.99
231.5 379.8
231.4 379.62
231.3 379.43
231.2 379.24
231.1 379.06
231.0 378.87
230.9 378.68
230.8 378.5
230.7 378.31
230.6 378.12
230.5 377.93
230.4 377.75
230.3 377.56
230.2 377.37
230.1 377.19
230.0 377.0
229.9 376.81
229.8 376.63
229.7 376.44
229.6 376.25
229.5 376.07
229.4 375.88
229.3 375.69
229.2 375.5
229.1 375.32
229.0 375.13
228.9 374.94
228.8 374.76
228.7 374.57
228.6 374.38
228.5 374.2
228.4 374.01
228.3 373.82
228.2 373.63
228.1 373.45
228.0 373.26
227.9 373.07
227.8 372.89
227.7 372.7
227.6 372.51
227.5 372.33
227.4 372.14
227.3 371.95
227.2 371.77
227.1 371.58
227.0 371.39
226.9 371.2
226.8 371.02
226.7 370.83
226.6 370.64
226.5 370.46
226.4 370.27
226.3 370.08
226.2 369.9
226.1 369.71
226.0 369.52
225.9 369.33
225.8 369.15
225.7 368.96
225.6 368.77
225.5 368.59
225.4 368.4
225.3 368.21
225.2 368.03
225.1 367.84
225.0 367.65
224.9 367.47
224.8 367.28
224.7 367.09
224.6 366.9
224.5 366.72
224.4 366.53
224.3 366.34
224.2 366.16
224.1 365.97
224.0 365.78
223.9 365.6
223.8 365.41
223.7 365.22
223.6 365.03
223.5 364.85
223.4 364.66
223.3 364.47
223.2 364.29
223.1 364.1
223.0 363.91
222.9 363.73
222.8 363.54
222.7 363.35
222.6 363.17
222.5 362.98
222.4 362.79
222.3 362.6
222.2 362.42
222.1 362.23
222.0 362.04
221.9 361.86
221.8 361.67
221.7 361.48
221.6 361.3
221.5 361.11
221.4 360.92
221.3 360.73
221.2 360.55
221.1 360.36
221.0 360.17
220.9 359.99
220.8 359.8
220.7 359.61
220.6 359.43
220.5 359.24
220.4 359.05
220.3 358.87
220.2 358.68
220.1 358.49
220.0 358.3
219.9 358.12
219.8 357.93
219.7 357.74
219.6 357.56
219.5 357.37
219.4 357.18
219.3 357.0
219.2 356.81
219.1 356.62
219.0 356.43
218.9 356.25
218.8 356.06
218.7 355.87
218.6 355.69
218.5 355.5
218.4 355.31
218.3 355.13
218.2 354.94
218.1 354.75
218.0 354.57
217.9 354.38
217.8 354.19
217.7 354.0
217.6 353.82
217.5 353.63
217.4 353.44
217.3 353.26
217.2 353.07
217.1 352.88
217.0 352.7
216.9 352.51
216.8 352.32
216.7 352.13
216.6 351.95
216.5 351.76
216.4 351.57
216.3 351.39
216.2 351.2
216.1 351.01
216.0 350.83
215.9 350.64
215.8 350.45
215.7 350.27
215.6 350.08
215.5 349.89
215.4 349.7
215.3 349.52
215.2 349.33
215.1 349.14
215.0 348.96
214.9 348.77
214.8 348.58
214.7 348.4
214.6 348.21
214.5 348.02
214.4 347.83
214.3 347.65
214.2 347.46
214.1 347.27
214.0 347.09
213.9 346.9
213.8 346.71
213.7 346.53
213.6 346.34
213.5 346.15
213.4 345.97
213.3 345.78
213.2 345.59
213.1 345.4
213.0 345.22
212.9 345.03
212.8 344.84
212.7 344.66
212.6 344.47
212.5 344.28
212.4 344.1
212.3 343.91
212.2 343.72
212.1 343.53
212.0 343.35
211.9 343.16
211.8 342.97
211.7 342.79
211.6 342.6
211.5 342.41
211.4 342.23
211.3 342.04
211.2 341.85
211.1 341.67
211.0 341.48
210.9 341.29
210.8 341.1
210.7 340.92
210.6 340.73
210.5 340.54
210.4 340.36
210.3 340.17
210.2 339.98
210.1 339.8
210.0 339.61
209.9 339.42
209.8 339.23
209.7 339.05
209.6 338.86
209.5 338.67
209.4 338.49
209.3 338.3
209.2 338.11
209.1 337.93
209.0 337.74
208.9 337.55
208.8 337.37
208.7 337.18
208.6 336.99
208.5 336.8
208.4 336.62
208.3 336.43
208.2 336.24
208.1 336.06
208.0 335.87
207.9 335.68
207.8 335.5
207.7 335.31
207.6 335.12
207.5 334.93
207.4 334.75
207.3 334.56
207.2 334.37
207.1 334.19
207.0 334.0
206.9 333.81
206.8 333.63
206.7 333.44
206.6 333.25
206.5 333.07
206.4 332.88
206.3 332.69
206.2 332.5
206.1 332.32
206.0 332.13
205.9 331.94
205.8 331.76
205.7 331.57
205.6 331.38
205.5 331.2
205.4 331.01
205.3 330.82
205.2 330.63
205.1 330.45
205.0 330.26
204.9 330.07
204.8 329.89
204.7 329.7
204.6 329.51
204.5 329.33
204.4 329.14
204.3 328.95
204.2 328.77
204.1 328.58
204.0 328.39
203.9 328.2
203.8 328.02
203.7 327.83
203.6 327.64
203.5 327.46
203.4 327.27
203.3 327.08
203.2 326.9
203.1 326.71
203.0 326.52
202.9 326.33
202.8 326.15
202.7 325.96
202.6 325.77
202.5 325.59
202.4 325.4
202.3 325.21
202.2 325.03
202.1 324.84
202.0 324.65
201.9 324.47
201.8 324.28
201.7 324.09
201.6 323.9
201.5 323.72
201.4 323.53
201.3 323.34
201.2 323.16
201.1 322.97
201.0 322.78
200.9 322.6
200.8 322.41
200.7 322.22
200.6 322.03
200.5 321.85
200.4 321.66
200.3 321.47
200.2 321.29
200.1 321.1
200.0 320.91
199.9 320.73
199.8 320.54
199.7 320.35
199.6 320.17
199.5 319.98
199.4 319.79
199.3 319.6
199.2 319.42
199.1 319.23
199.0 319.04
198.9 318.86
198.8 318.67
198.7 318.48
198.6 318.3
198.5 318.11
198.4 317.92
198.3 317.74
198.2 317.55
198.1 317.36
198.0 317.17
197.9 316.99
197.8 316.8
197.7 316.61
197.6 316.43
197.5 316.24
197.4 316.05
197.3 315.87
197.2 315.68
197.1 315.49
197.0 315.3
196.9 315.12
196.8 314.93
196.7 314.74
196.6 314.56
196.5 314.37
196.4 314.18
196.3 314.0
196.2 313.81
196.1 313.62
196.0 313.43
195.9 313.25
195.8 313.06
195.7 312.87
195.6 312.69
195.5 312.5
195.4 312.31
195.3 312.13
195.2 311.94
195.1 311.75
195.0 311.56
194.9 311.38
194.8 311.19
194.7 311.0
194.6 310.82
194.5 310.63
194.4 310.44
194.3 310.26
194.2 310.07
194.1 309.88
194.0 309.69
193.9 309.51
193.8 309.32
193.7 309.13
193.6 308.95
193.5 308.76
193.4 308.57
193.3 308.39
193.2 308.2
193.1 308.01
193.0 307.82
192.9 307.64
192.8 307.45
192.7 307.26
192.6 307.08
192.5 306.89
192.4 306.7
192.3 306.52
192.2 306.33
192.1 306.14
192.0 305.95
191.9 305.77
191.8 305.58
191.7 305.39
191.6 305.21
191.5 305.02
191.4 304.83
191.3 304.65
191.2 304.46
191.1 304.27
191.0 304.09
190.9 303.9
190.8 303.71
190.7 303.52
190.6 303.34
190.5 303.15
190.4 302.96
190.3 302.78
190.2 302.59
190.1 302.4
190.0 302.22
189.9 302.03
189.8 301.84
189.7 301.66
189.6 301.47
189.5 301.28
189.4 301.1
189.3 300.91
189.2 300.72
189.1 300.54
189.0 300.35
188.9 300.17
188.8 299.98
188.7 299.79
188.6 299.61
188.5 299.42
188.4 299.23
188.3 299.05
188.2 298.86
188.1 298.67
188.0 298.49
187.9 298.3
187.8 298.11
187.7 297.93
187.6 297.74
187.5 297.55
187.4 297.37
187.3 297.18
187.2 296.99
187.1 296.81
187.0 296.62
186.9 296.43
186.8 296.25
186.7 296.06
186.6 295.87
186.5 295.68
186.4 295.5
186.3 295.31
186.2 295.12
186.1 294.93
186.0 294.75
185.9 294.56
185.8 294.37
185.7 294.18
185.6 294.0
185.5 293.81
185.4 293.62
185.3 293.43
185.2 293.24
185.1 293.05
185.0 292.86
184.9 292.67
184.8 292.48
184.7 292.29
184.6 292.11
184.5 291.92
184.4 291.73
184.3 291.53
184.2 291.34
184.1 291.15
184.0 290.96
183.9 290.77
183.8 290.58
183.7 290.39
183.6 290.2
183.5 290.01
183.4 289.81
183.3 289.62
183.2 289.43
183.1 289.24
183.0 289.05
182.9 288.85
182.8 288.66
182.7 288.47
182.6 288.27
182.5 288.08
182.4 287.89
182.3 287.69
182.2 287.5
182.1 287.31
182.0 287.11
181.9 286.92
181.8 286.72
181.7 286.53
181.6 286.33
181.5 286.14
181.4 285.95
181.3 285.75
181.2 285.56
181.1 285.36
181.0 285.17
180.9 284.97
180.8 284.78
180.7 284.58
180.6 284.39
180.5 284.19
180.4 284.0
180.3 283.8
180.2 283.61
180.1 283.41
180.0 283.22
179.9 283.02
179.8 282.82
179.7 282.63
179.6 282.43
179.5 282.24
179.4 282.04
179.3 281.85
179.2 281.65
179.1 281.46
179.0 281.26
178.9 281.07
178.8 280.87
178.7 280.68
178.6 280.48
178.5 280.29
178.4 280.09
178.3 279.9
178.2 279.7
178.1 279.51
178.0 279.31
177.9 279.12
177.8 278.92
177.7 278.73
177.6 278.53
177.5 278.34
177.4 278.14
177.3 277.95
177.2 277.75
177.1 277.56
177.0 277.36
176.9 277.17
176.8 276.97
176.7 276.78
176.6 276.58
176.5 276.39
176.4 276.19
176.3 276.0
176.2 275.8
176.1 275.61
176.0 275.41
175.9 275.22
175.8 275.02
175.7 274.83
175.6 274.63
175.5 274.44
175.4 274.24
175.3 274.05
175.2 273.85
175.1 273.66
175.0 273.46
174.9 273.27
174.8 273.07
174.7 272.88
174.6 272.68
174.5 272.49
174.4 272.3
174.3 272.1
174.2 271.91
174.1 271.71
174.0 271.52
173.9 271.32
173.8 271.13
173.7 270.93
173.6 270.74
173.5 270.54
173.4 270.35
173.3 270.15
173.2 269.96
173.1 269.76
173.0 269.57
172.9 269.37
172.8 269.18
172.7 268.98
172.6 268.79
172.5 268.59
172.4 268.4
172.3 268.21
172.2 268.01
172.1 267.82
172.0 267.62
171.9 267.43
171.8 267.23
171.7 267.04
171.6 266.84
171.5 266.65
171.4 266.45
171.3 266.26
171.2 266.06
171.1 265.87
171.0 265.67
170.9 265.48
170.8 265.28
170.7 265.09
170.6 264.89
170.5 264.7
170.4 264.5
170.3 264.31
170.2 264.11
170.1 263.92
170.0 263.72
169.9 263.53
169.8 263.33
169.7 263.14
169.6 262.95
169.5 262.75
169.4 262.56
169.3 262.36
169.2 262.17
169.1 261.97
169.0 261.78
168.9 261.58
168.8 261.39
168.7 261.19
168.6 261.0
168.5 260.8
168.4 260.61
168.3 260.41
168.2 260.22
168.1 260.02
168.0 259.83
167.9 259.63
167.8 259.44
167.7 259.24
167.6 259.05
167.5 258.85
167.4 258.66
167.3 258.46
167.2 258.27
167.1 258.07
167.0 257.88
166.9 257.68
166.8 257.49
166.7 257.29
166.6 257.1
166.5 256.91
166.4 256.71
166.3 256.52
166.2 256.32
166.1 256.13
166.0 255.93
165.9 255.74
165.8 255.54
165.7 255.35
165.6 255.15
165.5 254.96
165.4 254.76
165.3 254.57
165.2 254.37
165.1 254.18
165.0 253.98
164.9 253.79
164.8 253.59
164.7 253.4
164.6 253.2
164.5 253.01
164.4 252.81
164.3 252.62
164.2 252.42
164.1 252.23
164.0 252.03
163.9 251.84
163.8 251.64
163.7 251.45
163.6 251.26
163.5 251.06
163.4 250.87
163.3 250.67
163.2 250.48
163.1 250.28
163.0 250.09
162.9 249.89
162.8 249.7
162.7 249.5
162.6 249.31
162.5 249.11
162.4 248.92
162.3 248.72
162.2 248.53
162.1 248.33
162.0 248.14
161.9 247.94
161.8 247.75
161.7 247.55
161.6 247.36
161.5 247.16
161.4 246.97
161.3 246.77
161.2 246.58
161.1 246.38
161.0 246.19
160.9 245.99
160.8 245.8
160.7 245.61
160.6 245.41
160.5 245.22
160.4 245.02
160.3 244.83
160.2 244.63
160.1 244.44
160.0 244.24
159.9 244.05
159.8 243.85
159.7 243.66
159.6 243.46
159.5 243.27
159.4 243.07
159.3 242.88
159.2 242.68
159.1 242.49
159.0 242.29
158.9 242.1
158.8 241.9
158.7 241.71
158.6 241.51
158.5 241.32
158.4 241.12
158.3 240.93
158.2 240.73
158.1 240.54
158.0 240.34
157.9 240.15
157.8 239.96
157.7 239.76
157.6 239.57
157.5 239.37
157.4 239.18
157.3 238.98
157.2 238.79
157.1 238.59
157.0 238.4
156.9 238.2
156.8 238.01
156.7 237.81
156.6 237.62
156.5 237.42
156.4 237.23
156.3 237.03
156.2 236.84
156.1 236.64
156.0 236.45
155.9 236.25
155.8 236.06
155.7 235.86
155.6 235.67
155.5 235.47
155.4 235.28
155.3 235.08
155.2 234.89
155.1 234.7
155.0 234.5
154.9 234.31
154.8 234.11
154.7 233.92
154.6 233.72
154.5 233.53
154.4 233.33
154.3 233.14
154.2 232.94
154.1 232.75
154.0 232.55
153.9 232.36
153.8 232.16
153.7 231.97
153.6 231.77
153.5 231.58
153.4 231.38
153.3 231.19
153.2 230.99
153.1 230.8
153.0 230.6
152.9 230.41
152.8 230.21
152.7 230.02
152.6 229.82
152.5 229.63
152.4 229.43
152.3 229.24
152.2 229.04
152.1 228.85
152.0 228.65
151.9 228.46
151.8 228.26
151.7 228.07
151.6 227.88
151.5 227.68
151.4 227.49
151.3 227.29
151.2 227.1
151.1 226.9
151.0 226.71
150.9 226.51
150.8 226.32
150.7 226.12
150.6 225.93
150.5 225.73
150.4 225.54
150.3 225.34
150.2 225.15
150.1 224.95
150.0 224.76
149.9 224.56
149.8 224.37
149.7 224.17
149.6 223.98
149.5 223.78
149.4 223.59
149.3 223.39
149.2 223.2
149.1 223.0
149.0 222.81
148.9 222.61
148.8 222.42
148.7 222.23
148.6 222.03
148.5 221.84
148.4 221.64
148.3 221.45
148.2 221.25
148.1 221.06
148.0 220.86
147.9 220.67
147.8 220.47
147.7 220.28
147.6 220.08
147.5 219.89
147.4 219.69
147.3 219.5
147.2 219.31
147.1 219.11
147.0 218.92
146.9 218.72
146.8 218.53
146.7 218.33
146.6 218.14
146.5 217.94
146.4 217.75
146.3 217.56
146.2 217.36
146.1 217.17
146.0 216.97
145.9 216.78
145.8 216.58
145.7 216.39
145.6 216.19
145.5 216.0
145.4 215.8
145.3 215.61
145.2 215.41
145.1 215.22
145.0 215.03
144.9 214.83
144.8 214.64
144.7 214.44
144.6 214.25
144.5 214.05
144.4 213.86
144.3 213.66
144.2 213.47
144.1 213.27
144.0 213.08
143.9 212.88
143.8 212.69
143.7 212.49
143.6 212.3
143.5 212.1
143.4 211.9
143.3 211.71
143.2 211.51
143.1 211.32
143.0 211.12
142.9 210.93
142.8 210.73
142.7 210.53
142.6 210.34
142.5 210.14
142.4 209.95
142.3 209.75
142.2 209.55
142.1 209.36
142.0 209.16
141.9 208.96
141.8 208.77
141.7 208.57
141.6 208.37
141.5 208.18
141.4 207.98
141.3 207.78
141.2 207.59
141.1 207.39
141.0 207.19
140.9 207.0
140.8 206.8
140.7 206.6
140.6 206.41
140.5 206.21
140.4 206.01
140.3 205.82
140.2 205.62
140.1 205.42
140.0 205.23
139.9 205.03
139.8 204.84
139.7 204.64
139.6 204.44
139.5 204.25
139.4 204.05
139.3 203.86
139.2 203.66
139.1 203.47
139.0 203.28
138.9 203.08
138.8 202.89
138.7 202.69
138.6 202.5
138.5 202.31
138.4 202.12
138.3 201.93
138.2 201.73
138.1 201.54
138.0 201.35
137.9 201.16
137.8 200.97
137.7 200.78
137.6 200.6
137.5 200.41
137.4 200.22
137.3 200.03
137.2 199.84
137.1 199.66
137.0 199.47
136.9 199.29
136.8 199.1
136.7 198.92
136.6 198.73
136.5 198.55
136.4 198.36
136.3 198.18
136.2 198.0
136.1 197.81
136.0 197.63
135.9 197.45
135.8 197.26
135.7 197.08
135.6 196.9
135.5 196.71
135.4 196.53
135.3 196.35
135.2 196.16
135.1 195.98
135.0 195.79
134.9 195.61
134.8 195.42
134.7 195.24
134.6 195.05
134.5 194.86
134.4 194.67
134.3 194.48
134.2 194.29
134.1 194.09
134.0 193.9
133.9 193.7
133.8 193.51
133.7 193.31
133.6 193.1
133.5 192.9
133.4 192.69
133.3 192.49
133.2 192.28
133.1 192.06
133.0 191.85
132.9 191.63
132.8 191.41
132.7 191.19
132.6 190.96
132.5 190.73
132.4 190.5
132.3 190.27
132.2 190.03
132.1 189.79
132.0 189.55
131.9 189.3
131.8 189.05
131.7 188.8
131.6 188.55
131.5 188.29
131.4 188.03
131.3 187.77
131.2 187.5
131.1 187.23
131.0 186.96
130.9 186.69
130.8 186.42
130.7 186.14
130.6 185.87
130.5 185.59
130.4 185.31
130.3 185.03
130.2 184.75
130.1 184.47
130.0 184.19
129.9 183.91
129.8 183.64
129.7 183.36
129.6 183.09
129.5 182.82
129.4 182.55
129.3 182.29
129.2 182.03
129.1 181.77
129.0 181.52
128.9 181.28
128.8 181.04
128.7 180.81
128.6 180.58
128.5 180.36
128.4 180.15
128.3 179.95
128.2 179.76
128.1 179.57
128.0 179.4
127.9 179.23
127.8 179.08
127.7 178.94
127.6 178.8
127.5 178.68
127.4 178.57
127.3 178.47
127.2 178.38
127.1 178.3
127.0 178.23
126.9 178.17
126.8 178.13
126.7 178.09
126.6 178.06
126.5 178.03
126.4 178.02
126.3 178.01
126.2 178.0
126.1 178.0
126.0 178.0
